outputs/case_259.model.txt
business_is_trust_and_company_service_provider = False
institution_is_fisheries_credit_department = False
institution_is_agricultural_credit_department = False
business_is_other_high_risk_business = False
institution_is_securities_firm = False
institution_is_credit_card_company = False
institution_is_securities_investment_advisor = False
transaction_amount_threshold = 500000
institution_is_insurance_company = False
institution_is_trust_industry = False
institution_is_national_agricultural_bank = False
transaction_is_cash_payment = False
business_is_real_estate_agent_related = False
institution_is_bill_finance_company = False
institution_is_credit_cooperative = False
transaction_is_currency_exchange = False
reporting_days_after_transaction = 0
designated_use_non_cash_payment_tool = False
business_is_finance_lease_or_virtual_asset_service = False
institution_is_securities_finance = False
institution_is_other_designated_financial_institution = False
institution_is_securities_central_depository = False
institution_is_trust_investment_company = False
institution_is_futures_broker = False
institution_is_bank = True
business_is_third_party_payment_service = False
reporting_written_approved = True
transaction_is_cash_receipt = True
business_is_jewelry = False
institution_is_postal_savings_insurance = False
business_is_lawyer_notary_accountant_related = False
reporting_media_submitted = False
institution_is_securities_investment_trust = False
reporting_timing_compliance = True
designated_non_financial_business_definition = False
training_held_regularly = True
currency_transaction_definition = True
internal_control_implemented = True
financial_institution_definition = True
control_procedures_established = True
other_designated_matters_established = True
internal_control_executed = True
transaction_amount_definition = True
dedicated_personnel_assigned = True
penalty = False
internal_control_compliance = True
audit_procedures_established = True
internal_control_established = True
risk_assessment_report_updated = True
inspection_evaded = False
finance_lease_and_virtual_asset_applicability = False
transaction_payment_tool_requirement = False